p cnf 200 300
1 77 0
1 196 0
1 76 0
2 86 0
2 159 0
2 105 0
3 192 0
3 5 0
3 88 0
4 134 0
4 120 0
4 149 0
5 119 0
5 138 0
6 104 0
6 98 0
6 63 0
7 21 0
7 19 0
7 171 0
8 20 0
8 103 0
8 92 0
9 25 0
9 78 0
9 32 0
10 83 0
10 13 0
10 33 0
11 168 0
11 114 0
11 139 0
12 138 0
12 60 0
12 182 0
13 20 0
13 38 0
14 133 0
14 162 0
14 50 0
15 146 0
15 137 0
15 192 0
16 75 0
16 130 0
16 55 0
17 156 0
17 196 0
17 58 0
18 44 0
18 186 0
18 179 0
19 145 0
19 110 0
20 164 0
21 65 0
21 66 0
22 99 0
22 93 0
22 65 0
23 197 0
23 143 0
23 35 0
24 53 0
24 46 0
24 100 0
25 122 0
25 152 0
26 150 0
26 124 0
26 119 0
27 165 0
27 128 0
27 42 0
28 170 0
28 51 0
28 171 0
29 190 0
29 110 0
29 111 0
30 36 0
30 115 0
30 112 0
31 88 0
31 45 0
31 175 0
32 143 0
32 195 0
33 161 0
33 155 0
34 83 0
34 74 0
34 84 0
35 149 0
35 125 0
36 137 0
36 164 0
37 44 0
37 165 0
37 45 0
38 160 0
38 172 0
39 142 0
39 52 0
39 159 0
40 160 0
40 103 0
40 143 0
41 57 0
41 145 0
41 94 0
42 195 0
42 198 0
43 176 0
43 199 0
43 137 0
44 199 0
45 142 0
46 76 0
46 89 0
47 86 0
47 167 0
47 112 0
48 152 0
48 132 0
48 170 0
49 60 0
49 139 0
49 130 0
50 94 0
50 185 0
51 72 0
51 148 0
52 140 0
52 72 0
53 147 0
53 89 0
54 61 0
54 189 0
54 172 0
55 147 0
55 57 0
56 81 0
56 166 0
56 91 0
57 153 0
58 124 0
58 79 0
59 171 0
59 90 0
59 62 0
60 184 0
61 129 0
61 97 0
62 83 0
62 186 0
63 72 0
63 82 0
64 131 0
64 84 0
64 126 0
65 103 0
66 93 0
66 131 0
67 71 0
67 123 0
67 129 0
68 153 0
68 94 0
68 126 0
69 176 0
69 70 0
69 132 0
70 124 0
70 146 0
71 85 0
71 119 0
73 150 0
73 174 0
73 161 0
74 107 0
74 178 0
75 118 0
75 141 0
76 193 0
77 191 0
77 165 0
78 82 0
78 141 0
79 140 0
79 118 0
80 115 0
80 84 0
80 167 0
81 109 0
81 136 0
82 186 0
85 115 0
85 169 0
86 194 0
87 135 0
87 125 0
87 136 0
88 192 0
89 98 0
90 146 0
90 114 0
91 169 0
91 170 0
92 200 0
92 127 0
93 141 0
95 187 0
95 139 0
95 98 0
96 122 0
96 111 0
96 123 0
97 175 0
97 181 0
99 121 0
99 177 0
100 198 0
100 101 0
101 117 0
101 152 0
102 122 0
102 177 0
102 149 0
104 154 0
104 199 0
105 155 0
105 180 0
106 158 0
106 154 0
106 173 0
107 145 0
107 167 0
108 123 0
108 178 0
108 195 0
109 172 0
109 157 0
110 112 0
111 181 0
113 198 0
113 179 0
113 194 0
114 151 0
116 160 0
116 183 0
116 163 0
117 135 0
117 162 0
118 166 0
120 178 0
120 185 0
121 190 0
121 158 0
125 158 0
126 168 0
127 185 0
127 164 0
128 175 0
128 174 0
129 151 0
130 193 0
131 155 0
132 169 0
133 188 0
133 196 0
134 153 0
134 183 0
135 194 0
136 191 0
138 189 0
140 197 0
142 193 0
144 189 0
144 188 0
144 159 0
147 163 0
148 200 0
148 182 0
150 174 0
151 190 0
154 162 0
156 180 0
156 191 0
157 161 0
157 200 0
163 184 0
166 179 0
168 176 0
173 181 0
173 197 0
177 187 0
180 182 0
183 184 0
187 188 0
g -122